391
293
1247
1341
105
577
1153
2967
2681
2871
2778
2199
2485
2106
2296
2014
2391
1822
1917
90
3063
102
1723
196
2584
1625
289
1527
478
383
861
673
765
1426
956
1333
1051
1143
1238
1899
2838
2746
2653
1993
2185
2089
2560
2936
1047
2372
2280
2465
1336
1240
1145
1430
1805
1522
1710
1615
481
200
105
573
951
668
92
856
760
2401
2306
388
2494
293
198
2211
2980
2882
2688
2593
2783
2005
1912
1721
2109
1816
3177
1626
1435
3199
1531
774
88
868
961
3081
677
1058
487
582